
Gurobi 11.0.1 (win64) logging started Tue May 14 15:33:53 2024

Set parameter LogFile to value "output/solver_log2.txt"
Gurobi Optimizer version 11.0.1 build v11.0.1rc0 (win64 - Windows 11.0 (22631.2))

CPU model: 11th Gen Intel(R) Core(TM) i7-1165G7 @ 2.80GHz, instruction set [SSE2|AVX|AVX2|AVX512]
Thread count: 4 physical cores, 8 logical processors, using up to 8 threads

Optimize a model with 2574 rows, 604 columns and 48764 nonzeros
Model fingerprint: 0xa4601e8c
Variable types: 248 continuous, 356 integer (356 binary)
Coefficient statistics:
  Matrix range     [4e-01, 1e+05]
  Objective range  [1e+00, 1e+02]
  Bounds range     [1e+00, 1e+00]
  RHS range        [1e-02, 1e+05]

User MIP start produced solution with objective 39615.6 (0.01s)
User MIP start produced solution with objective 39615.6 (0.01s)
Loaded user MIP start with objective 39615.6

Presolve removed 219 rows and 186 columns
Presolve time: 0.05s
Presolved: 2355 rows, 418 columns, 46260 nonzeros
Variable types: 235 continuous, 183 integer (179 binary)

Root relaxation: objective 4.739346e+04, 738 iterations, 0.04 seconds (0.08 work units)

    Nodes    |    Current Node    |     Objective Bounds      |     Work
 Expl Unexpl |  Obj  Depth IntInf | Incumbent    BestBd   Gap | It/Node Time

     0     0 47393.4573    0   20 39615.5846 47393.4573  19.6%     -    0s
     0     0 46584.1961    0   30 39615.5846 46584.1961  17.6%     -    0s
     0     0 45343.1410    0   25 39615.5846 45343.1410  14.5%     -    0s
     0     0 45343.1410    0   26 39615.5846 45343.1410  14.5%     -    0s
     0     0 44217.2904    0   46 39615.5846 44217.2904  11.6%     -    0s
     0     0 43928.7035    0   42 39615.5846 43928.7035  10.9%     -    0s
     0     0 43910.6673    0   37 39615.5846 43910.6673  10.8%     -    0s
     0     0 43910.6673    0   36 39615.5846 43910.6673  10.8%     -    0s
     0     0 43843.9037    0   44 39615.5846 43843.9037  10.7%     -    0s
     0     0 42849.6937    0   38 39615.5846 42849.6937  8.16%     -    1s
     0     0 42798.9650    0   38 39615.5846 42798.9650  8.04%     -    1s
     0     0 42798.9650    0   38 39615.5846 42798.9650  8.04%     -    1s
     0     0 42762.3028    0   38 39615.5846 42762.3028  7.94%     -    1s
     0     0 42762.3028    0   38 39615.5846 42762.3028  7.94%     -    1s
     0     2 42762.3028    0   38 39615.5846 42762.3028  7.94%     -    1s
H  322   254                    39616.075428 42762.3028  7.94%   123    2s
H  353   281                    39617.886896 42762.3028  7.94%   114    3s
H  483   342                    39619.355861 42514.1625  7.31%  99.0    3s
H  487   342                    39620.289048 42514.1625  7.30%  98.4    3s
H  531   372                    39621.820137 42514.1625  7.30%  95.6    3s
H  536   372                    39622.701381 42514.1625  7.30%  97.0    3s
H  623   404                    39622.813359 42490.4584  7.24%  96.2    3s
H  819   439                    39672.860185 41472.2604  4.54%  91.2    4s
H  886   698                    39674.008484 39689.5924  0.04%  89.8    4s
*  937   678              75    39680.570782 39689.5924  0.02%  87.4    4s
H 1255   648                    39684.710013 39689.5924  0.01%  68.3    4s
  1367   763     cutoff   90      39684.7100 39689.5924  0.01%  67.4    5s
* 1968  1174              74    39685.290698 39689.5908  0.01%  64.8    5s
H 2352  1000                    39687.896601 39689.5591  0.00%  63.7    6s

Cutting planes:
  Gomory: 2
  Implied bound: 3
  MIR: 23
  RLT: 1
  Relax-and-lift: 1

Explored 2475 nodes (162295 simplex iterations) in 6.62 seconds (13.86 work units)
Thread count was 8 (of 8 available processors)

Solution count 10: 39687.9 39687.9 39685.3 ... 39621.8

Optimal solution found (tolerance 1.00e-04)
Best objective 3.968789660058e+04, best bound 3.968955911629e+04, gap 0.0042%
